c preprocessed version of 1plc_graph, 98 vertices, 1167 edges
p td 98 1167
96 97
95 97
95 96
94 97
94 96
94 95
93 97
93 96
93 95
93 94
92 96
92 94
92 93
91 94
91 93
91 92
90 94
90 92
90 91
89 91
89 90
88 91
88 90
88 89
87 91
87 90
87 89
87 88
86 93
86 92
86 91
86 90
86 89
86 88
86 87
85 92
85 91
85 90
85 89
85 88
85 87
85 86
84 90
84 88
84 87
84 86
84 85
83 91
83 87
83 86
83 85
83 84
82 93
82 92
82 91
82 90
82 89
82 87
82 86
82 85
82 84
82 83
81 96
81 95
81 94
81 93
81 92
81 91
81 90
81 86
81 85
81 83
81 82
80 95
80 94
80 93
80 92
80 91
80 86
80 83
80 82
80 81
79 96
79 95
79 94
79 93
79 92
79 91
79 82
79 81
79 80
78 97
78 96
78 95
78 94
78 93
78 92
78 91
78 81
78 80
78 79
77 97
77 96
77 95
77 94
77 93
77 80
77 79
77 78
76 97
76 96
76 95
76 94
76 79
76 78
76 77
75 96
75 94
75 79
75 77
75 76
74 96
74 94
74 79
74 76
74 75
73 97
73 96
73 95
73 94
73 93
73 92
73 81
73 80
73 79
73 78
73 77
73 76
73 75
73 74
72 96
72 94
72 74
72 73
71 96
71 94
71 92
71 81
71 79
71 74
71 73
71 72
70 73
70 72
70 71
69 94
69 92
69 90
69 81
69 79
69 73
69 71
69 70
68 71
68 70
68 69
67 70
67 69
67 68
66 70
66 68
66 67
65 67
65 66
64 67
64 66
64 65
63 84
63 69
63 67
63 65
63 64
62 92
62 90
62 85
62 84
62 81
62 71
62 70
62 69
62 68
62 67
62 66
62 64
62 63
61 90
61 85
61 84
61 83
61 82
61 69
61 67
61 64
61 63
61 62
60 84
60 83
60 71
60 69
60 67
60 63
60 62
60 61
59 84
59 83
59 63
59 61
59 60
58 91
58 86
58 84
58 83
58 82
58 61
58 60
58 59
57 83
57 69
57 62
57 61
57 60
57 59
57 58
56 92
56 84
56 83
56 81
56 79
56 73
56 71
56 70
56 69
56 68
56 67
56 63
56 62
56 61
56 60
56 59
56 58
56 57
55 94
55 92
55 83
55 82
55 81
55 79
55 73
55 71
55 69
55 60
55 58
55 57
55 56
54 96
54 94
54 92
54 81
54 80
54 79
54 77
54 75
54 74
54 73
54 72
54 71
54 70
54 69
54 56
54 55
53 79
53 75
53 74
53 73
53 72
53 71
53 57
53 55
53 54
52 71
52 60
52 59
52 58
52 57
52 56
52 55
52 54
52 53
51 83
51 82
51 81
51 79
51 73
51 71
51 58
51 57
51 55
51 54
51 53
51 52
50 79
50 75
50 73
50 57
50 55
50 54
50 53
50 52
50 51
49 96
49 94
49 81
49 79
49 78
49 77
49 76
49 75
49 74
49 73
49 72
49 71
49 55
49 54
49 53
49 52
49 51
49 50
48 75
48 53
48 50
48 49
47 79
47 77
47 75
47 49
47 48
46 96
46 94
46 79
46 78
46 77
46 76
46 75
46 74
46 73
46 54
46 49
46 48
46 47
45 96
45 94
45 93
45 92
45 82
45 81
45 80
45 79
45 78
45 77
45 75
45 74
45 73
45 71
45 55
45 54
45 53
45 51
45 50
45 49
45 48
45 47
45 46
44 95
44 93
44 92
44 91
44 86
44 82
44 81
44 80
44 79
44 78
44 77
44 46
44 45
43 91
43 86
43 82
43 80
43 58
43 51
43 47
43 45
43 44
42 83
42 82
42 79
42 58
42 57
42 55
42 54
42 52
42 51
42 50
42 49
42 45
42 44
42 43
41 93
41 92
41 91
41 86
41 83
41 82
41 81
41 80
41 79
41 78
41 58
41 55
41 54
41 51
41 49
41 45
41 44
41 43
41 42
40 96
40 94
40 93
40 92
40 91
40 83
40 82
40 81
40 80
40 79
40 78
40 77
40 75
40 73
40 71
40 69
40 58
40 56
40 55
40 54
40 53
40 52
40 51
40 50
40 49
40 46
40 45
40 44
40 42
40 41
39 92
39 91
39 86
39 84
39 83
39 82
39 81
39 80
39 79
39 71
39 69
39 62
39 61
39 60
39 59
39 58
39 57
39 56
39 55
39 54
39 52
39 51
39 45
39 44
39 43
39 42
39 41
39 40
38 96
38 94
38 92
38 91
38 90
38 85
38 83
38 82
38 81
38 80
38 79
38 73
38 71
38 70
38 69
38 68
38 67
38 62
38 60
38 56
38 55
38 54
38 51
38 49
38 45
38 40
38 39
37 92
37 90
37 86
37 85
37 84
37 83
37 82
37 71
37 69
37 67
37 63
37 62
37 61
37 60
37 59
37 58
37 57
37 56
37 55
37 39
37 38
36 92
36 90
36 88
36 85
36 84
36 83
36 81
36 71
36 69
36 68
36 67
36 65
36 64
36 63
36 62
36 61
36 60
36 56
36 38
36 37
35 90
35 85
35 84
35 83
35 67
35 64
35 63
35 62
35 61
35 60
35 59
35 58
35 56
35 37
35 36
34 90
34 85
34 84
34 69
34 67
34 66
34 65
34 64
34 63
34 62
34 61
34 56
34 38
34 37
34 36
34 35
33 90
33 88
33 85
33 84
33 65
33 61
33 36
33 35
33 34
32 85
32 65
32 36
32 34
32 33
31 68
31 66
31 65
31 36
31 34
31 33
31 32
30 90
30 85
30 69
30 68
30 67
30 66
30 65
30 64
30 63
30 62
30 61
30 60
30 56
30 38
30 37
30 36
30 35
30 34
30 33
30 32
30 31
29 70
29 69
29 68
29 67
29 66
29 65
29 62
29 38
29 36
29 34
29 32
29 31
29 30
28 96
28 94
28 92
28 90
28 85
28 82
28 81
28 79
28 73
28 71
28 70
28 69
28 68
28 67
28 62
28 61
28 60
28 56
28 55
28 54
28 40
28 39
28 38
28 37
28 36
28 34
28 31
28 30
28 29
27 94
27 72
27 71
27 70
27 69
27 68
27 67
27 66
27 62
27 38
27 31
27 30
27 29
27 28
26 96
26 95
26 94
26 93
26 92
26 90
26 81
26 79
26 73
26 72
26 71
26 70
26 69
26 62
26 56
26 55
26 54
26 49
26 45
26 40
26 38
26 36
26 29
26 28
26 27
25 96
25 94
25 74
25 73
25 72
25 71
25 70
25 68
25 54
25 38
25 29
25 28
25 27
25 26
24 96
24 94
24 74
24 73
24 72
24 71
24 27
24 26
24 25
23 96
23 76
23 74
23 73
23 72
23 26
23 25
23 24
22 97
22 96
22 94
22 79
22 77
22 76
22 75
22 74
22 73
22 49
22 46
22 26
22 24
22 23
21 97
21 96
21 95
21 94
21 76
21 74
21 73
21 26
21 25
21 24
21 23
21 22
20 97
20 96
20 95
20 94
20 93
20 92
20 81
20 79
20 78
20 76
20 74
20 73
20 72
20 71
20 70
20 54
20 49
20 45
20 40
20 38
20 28
20 27
20 26
20 25
20 24
20 23
20 22
20 21
19 97
19 96
19 95
19 94
19 93
19 78
19 76
19 73
19 26
19 24
19 21
19 20
18 96
18 95
18 94
18 93
18 92
18 81
18 79
18 78
18 73
18 71
18 40
18 38
18 28
18 27
18 26
18 24
18 20
18 19
17 97
17 95
17 94
17 93
17 92
17 91
17 89
17 81
17 80
17 78
17 44
17 20
17 19
17 18
16 94
16 93
16 92
16 91
16 90
16 89
16 81
16 80
16 38
16 28
16 18
16 17
15 94
15 92
15 81
15 28
15 26
15 24
15 20
15 19
15 18
15 17
15 16
14 90
14 31
14 29
14 28
14 18
14 16
14 15
13 94
13 93
13 92
13 91
13 90
13 86
13 85
13 82
13 81
13 80
13 79
13 73
13 71
13 69
13 62
13 56
13 41
13 40
13 39
13 38
13 37
13 36
13 34
13 33
13 31
13 30
13 29
13 28
13 27
13 26
13 20
13 18
13 17
13 16
13 15
13 14
12 93
12 92
12 91
12 90
12 89
12 88
12 85
12 81
12 36
12 33
12 31
12 28
12 17
12 16
12 15
12 14
12 13
11 90
11 89
11 88
11 87
11 86
11 85
11 84
11 61
11 38
11 37
11 36
11 35
11 34
11 33
11 32
11 30
11 28
11 14
11 13
11 12
10 90
10 89
10 88
10 85
10 33
10 32
10 16
10 15
10 14
10 13
10 12
10 11
9 88
9 85
9 65
9 34
9 33
9 32
9 12
9 11
9 10
8 33
8 32
8 31
8 14
8 12
8 11
8 10
8 9
7 65
7 32
7 31
7 29
7 14
7 12
7 10
7 9
7 8
6 90
6 36
6 33
6 32
6 31
6 16
6 15
6 14
6 13
6 12
6 11
6 10
6 9
6 8
6 7
5 90
5 88
5 85
5 84
5 65
5 61
5 38
5 37
5 36
5 35
5 34
5 33
5 32
5 31
5 30
5 28
5 14
5 13
5 12
5 11
5 10
5 9
5 7
5 6
4 94
4 92
4 90
4 85
4 84
4 82
4 81
4 71
4 69
4 68
4 67
4 62
4 61
4 60
4 56
4 40
4 39
4 38
4 37
4 36
4 35
4 34
4 33
4 32
4 31
4 30
4 29
4 28
4 27
4 26
4 14
4 13
4 12
4 11
4 6
4 5
3 92
3 90
3 68
3 66
3 65
3 38
3 32
3 31
3 30
3 29
3 28
3 27
3 26
3 15
3 14
3 13
3 12
3 10
3 8
3 7
3 6
3 5
3 4
2 96
2 94
2 93
2 92
2 90
2 85
2 81
2 79
2 73
2 71
2 70
2 69
2 62
2 56
2 54
2 40
2 38
2 36
2 34
2 31
2 30
2 29
2 28
2 27
2 26
2 25
2 24
2 20
2 18
2 17
2 16
2 15
2 14
2 13
2 12
2 4
2 3
1 70
1 68
1 66
1 31
1 30
1 29
1 28
1 27
1 26
1 25
1 24
1 18
1 15
1 14
1 13
1 7
1 4
1 3
1 2
0 96
0 95
0 94
0 92
0 81
0 73
0 71
0 70
0 29
0 28
0 27
0 26
0 25
0 24
0 21
0 20
0 19
0 18
0 17
0 16
0 15
0 14
0 13
0 3
0 2
0 1
